datasets/20l5i.nl
g3 4 1 0	# problem 20l5i
 360 134 1 0 105	# vars, constraints, objectives, ranges, eqns
 0 1	# nonlinear constraints, objectives
 0 0	# network constraints: nonlinear, linear
 0 90 0	# nonlinear vars in constraints, objectives, both
 0 0 0 1	# linear network variables; functions; arith, flags
 0 270 0 0 90	# discrete variables: binary, integer, nonlinear (b,c,o)
 1380 330	# nonzeros in Jacobian, gradients
 0 0	# max name lengths: constraints, variables
 0 0 0 0 0	# common exprs: b,c,o,c1,o1
b
2 0
2 0
2 0
2 0
2 0
2 0
2 0
2 0
2 0
2 0
2 0
2 0
2 0
2 0
2 0
2 0
2 0
2 0
2 0
2 0
2 0
2 0
2 0
2 0
2 0
2 0
2 0
2 0
2 0
2 0
2 0
2 0
2 0
2 0
2 0
2 0
2 0
2 0
2 0
2 0
2 0
2 0
2 0
2 0
2 0
2 0
2 0
2 0
2 0
2 0
2 0
2 0
2 0
2 0
2 0
2 0
2 0
2 0
2 0
2 0
2 0
2 0
2 0
2 0
2 0
2 0
2 0
2 0
2 0
2 0
2 0
2 0
2 0
2 0
2 0
2 0
2 0
2 0
2 0
2 0
2 0
2 0
2 0
2 0
2 0
2 0
2 0
2 0
2 0
2 0
0 0 60
0 0 70
0 0 70
0 0 50
0 0 30
0 0 60
0 0 70
0 0 70
0 0 50
0 0 30
0 0 60
0 0 70
0 0 70
0 0 50
0 0 30
0 0 60
0 0 70
0 0 70
0 0 50
0 0 30
0 0 60
0 0 70
0 0 70
0 0 50
0 0 30
0 0 60
0 0 70
0 0 70
0 0 50
0 0 30
0 0 60
0 0 90
0 0 80
0 0 100
0 0 80
0 0 60
0 0 90
0 0 80
0 0 100
0 0 80
0 0 60
0 0 90
0 0 80
0 0 100
0 0 80
0 0 60
0 0 90
0 0 80
0 0 100
0 0 80
0 0 60
0 0 90
0 0 80
0 0 100
0 0 80
0 0 60
0 0 90
0 0 80
0 0 100
0 0 80
0 0 70
0 0 70
0 0 60
0 0 50
0 0 90
0 0 70
0 0 70
0 0 60
0 0 50
0 0 90
0 0 70
0 0 70
0 0 60
0 0 50
0 0 90
0 0 70
0 0 70
0 0 60
0 0 50
0 0 90
0 0 70
0 0 70
0 0 60
0 0 50
0 0 90
0 0 70
0 0 70
0 0 60
0 0 50
0 0 90
0 0 70
0 0 50
0 0 70
0 0 90
0 0 110
0 0 70
0 0 50
0 0 70
0 0 90
0 0 110
0 0 70
0 0 50
0 0 70
0 0 90
0 0 110
0 0 70
0 0 50
0 0 70
0 0 90
0 0 110
0 0 70
0 0 50
0 0 70
0 0 90
0 0 110
0 0 70
0 0 50
0 0 70
0 0 90
0 0 110
0 0 140
0 0 120
0 0 120
0 0 110
0 0 90
0 0 140
0 0 120
0 0 120
0 0 110
0 0 90
0 0 140
0 0 120
0 0 120
0 0 110
0 0 90
0 0 140
0 0 120
0 0 120
0 0 110
0 0 90
0 0 140
0 0 120
0 0 120
0 0 110
0 0 90
0 0 140
0 0 120
0 0 120
0 0 110
0 0 90
0 0 400
0 0 400
0 0 400
0 0 400
0 0 400
0 0 400
0 0 400
0 0 400
0 0 400
0 0 400
0 0 400
0 0 400
0 0 400
0 0 400
0 0 400
0 0 400
0 0 400
0 0 400
0 0 400
0 0 400
0 0 400
0 0 400
0 0 400
0 0 400
0 0 400
0 0 400
0 0 400
0 0 400
0 0 400
0 0 400
0 0 392
0 0 392
0 0 392
0 0 392
0 0 392
0 0 392
0 0 392
0 0 392
0 0 392
0 0 392
0 0 392
0 0 392
0 0 392
0 0 392
0 0 392
0 0 400
0 0 400
0 0 400
0 0 400
0 0 400
0 0 400
0 0 400
0 0 400
0 0 400
0 0 400
0 0 400
0 0 400
0 0 400
0 0 400
0 0 400
0 0 400
0 0 400
0 0 400
0 0 400
0 0 400
0 0 400
0 0 400
0 0 400
0 0 400
0 0 400
0 0 400
0 0 400
0 0 400
0 0 400
0 0 400
0 0 400
0 0 400
0 0 400
0 0 400
0 0 400
0 0 400
0 0 400
0 0 400
0 0 400
0 0 400
0 0 400
0 0 400
0 0 400
0 0 400
0 0 400
0 0 90
0 0 90
0 0 50
0 0 30
0 0 60
0 0 80
0 0 50
0 0 20
0 0 50
0 0 50
0 0 90
0 0 70
0 0 80
0 0 100
0 0 90
0 0 80
0 0 90
0 0 80
0 0 100
0 0 60
0 0 100
0 0 60
0 0 60
0 0 100
0 0 40
0 0 40
0 0 100
0 0 100
0 0 70
0 0 100
r
4 60
4 70
4 70
4 50
4 30
4 60
4 90
4 80
4 100
4 80
4 70
4 70
4 60
4 50
4 90
4 70
4 50
4 70
4 90
4 110
4 140
4 120
4 120
4 110
4 90
4 0
4 0
4 0
4 0
4 0
4 0
4 0
4 0
4 0
4 0
4 0
4 0
4 0
4 0
4 0
4 0
4 0
4 0
4 0
4 0
4 0
4 0
4 0
4 0
4 0
4 0
4 0
4 0
4 0
4 0
4 0
4 0
4 0
4 0
4 0
4 0
4 0
4 0
4 0
4 0
4 0
4 0
4 0
4 0
4 0
4 -90
4 -90
4 -50
4 -30
4 -60
4 -80
4 -50
4 -20
4 -50
4 -50
4 -90
4 -70
4 -80
4 -130
4 -90
4 -80
4 -90
4 -80
4 -120
4 -60
4 -120
4 -60
4 -60
4 -100
4 -40
4 -40
4 -140
4 -210
4 -70
4 -200
4 100
4 100
4 100
4 100
4 100
1 411
1 442
1 392
1 409
1 439
1 668
1 869
1 837
1 1033
1 320
1 250
1 460
1 430
1 380
1 660
1 280
1 410
1 340
1 390
1 580
1 411
1 442
1 392
1 409
1 439
1 668
1 869
1 837
1 1033
C0
n0
C1
n0
C2
n0
C3
n0
C4
n0
C5
n0
C6
n0
C7
n0
C8
n0
C9
n0
C10
n0
C11
n0
C12
n0
C13
n0
C14
n0
C15
n0
C16
n0
C17
n0
C18
n0
C19
n0
C20
n0
C21
n0
C22
n0
C23
n0
C24
n0
C25
n0
C26
n0
C27
n0
C28
n0
C29
n0
C30
n0
C31
n0
C32
n0
C33
n0
C34
n0
C35
n0
C36
n0
C37
n0
C38
n0
C39
n0
C40
n0
C41
n0
C42
n0
C43
n0
C44
n0
C45
n0
C46
n0
C47
n0
C48
n0
C49
n0
C50
n0
C51
n0
C52
n0
C53
n0
C54
n0
C55
n0
C56
n0
C57
n0
C58
n0
C59
n0
C60
n0
C61
n0
C62
n0
C63
n0
C64
n0
C65
n0
C66
n0
C67
n0
C68
n0
C69
n0
C70
n0
C71
n0
C72
n0
C73
n0
C74
n0
C75
n0
C76
n0
C77
n0
C78
n0
C79
n0
C80
n0
C81
n0
C82
n0
C83
n0
C84
n0
C85
n0
C86
n0
C87
n0
C88
n0
C89
n0
C90
n0
C91
n0
C92
n0
C93
n0
C94
n0
C95
n0
C96
n0
C97
n0
C98
n0
C99
n0
C100
n0
C101
n0
C102
n0
C103
n0
C104
n0
C105
n0
C106
n0
C107
n0
C108
n0
C109
n0
C110
n0
C111
n0
C112
n0
C113
n0
C114
n0
C115
n0
C116
n0
C117
n0
C118
n0
C119
n0
C120
n0
C121
n0
C122
n0
C123
n0
C124
n0
C125
n0
C126
n0
C127
n0
C128
n0
C129
n0
C130
n0
C131
n0
C132
n0
C133
n0
O0 0
o54
30
o2
n10000
o5
o16
o3
o54
3
v0
v30
v60
n-90
n2
o2
n10000
o5
o16
o3
o54
3
v1
v31
v61
n-90
n2
o2
n10000
o5
o16
o3
o54
3
v2
v32
v62
n-50
n2
o2
n10000
o5
o16
o3
o54
3
v3
v33
v63
n-30
n2
o2
n10000
o5
o16
o3
o54
3
v4
v34
v64
n-60
n2
o2
n10000
o5
o16
o3
o54
3
v5
v35
v65
n-80
n2
o2
n10000
o5
o16
o3
o54
3
v6
v36
v66
n-50
n2
o2
n10000
o5
o16
o3
o54
3
v7
v37
v67
n-20
n2
o2
n10000
o5
o16
o3
o54
3
v8
v38
v68
n-50
n2
o2
n10000
o5
o16
o3
o54
3
v9
v39
v69
n-50
n2
o2
n10000
o5
o16
o3
o54
3
v10
v40
v70
n-90
n2
o2
n10000
o5
o16
o3
o54
3
v11
v41
v71
n-70
n2
o2
n10000
o5
o16
o3
o54
3
v12
v42
v72
n-80
n2
o2
n10000
o5
o16
o3
o54
3
v13
v43
v73
n-130
n2
o2
n10000
o5
o16
o3
o54
3
v14
v44
v74
n-90
n2
o2
n10000
o5
o16
o3
o54
3
v15
v45
v75
n-80
n2
o2
n10000
o5
o16
o3
o54
3
v16
v46
v76
n-90
n2
o2
n10000
o5
o16
o3
o54
3
v17
v47
v77
n-80
n2
o2
n10000
o5
o16
o3
o54
3
v18
v48
v78
n-120
n2
o2
n10000
o5
o16
o3
o54
3
v19
v49
v79
n-60
n2
o2
n10000
o5
o16
o3
o54
3
v20
v50
v80
n-120
n2
o2
n10000
o5
o16
o3
o54
3
v21
v51
v81
n-60
n2
o2
n10000
o5
o16
o3
o54
3
v22
v52
v82
n-60
n2
o2
n10000
o5
o16
o3
o54
3
v23
v53
v83
n-100
n2
o2
n10000
o5
o16
o3
o54
3
v24
v54
v84
n-40
n2
o2
n10000
o5
o16
o3
o54
3
v25
v55
v85
n-40
n2
o2
n10000
o5
o16
o3
o54
3
v26
v56
v86
n-140
n2
o2
n10000
o5
o16
o3
o54
3
v27
v57
v87
n-210
n2
o2
n10000
o5
o16
o3
o54
3
v28
v58
v88
n-70
n2
o2
n10000
o5
o16
o3
o54
3
v29
v59
v89
n-200
n2
k359
4
8
12
16
20
24
28
32
36
40
44
48
52
56
60
64
68
72
76
80
84
88
92
96
100
104
108
112
116
120
124
128
132
136
140
144
148
152
156
160
164
168
172
176
180
184
188
192
196
200
204
208
212
216
220
224
228
232
236
240
244
248
252
256
260
264
268
272
276
280
284
288
292
296
300
304
308
312
316
320
324
328
332
336
340
344
348
352
356
360
364
368
372
376
380
384
388
392
396
400
404
408
412
416
420
424
428
432
436
440
444
448
452
456
460
464
468
472
476
480
484
488
492
496
500
504
508
512
516
520
524
528
532
536
540
544
548
552
556
560
564
568
572
576
580
584
588
592
596
600
604
608
612
616
620
624
628
632
636
640
644
648
652
656
660
664
668
672
676
680
684
688
692
696
700
704
708
712
716
720
724
728
732
736
740
744
748
752
756
760
764
768
772
776
780
784
788
792
796
800
804
808
812
816
820
824
828
832
836
840
844
848
852
856
860
864
868
872
876
880
884
888
892
896
900
904
908
912
916
920
924
928
932
936
940
944
948
952
956
960
964
968
972
976
980
984
988
992
996
1000
1004
1008
1012
1016
1020
1024
1028
1032
1036
1040
1044
1048
1052
1056
1060
1064
1068
1072
1076
1080
1084
1088
1092
1096
1100
1104
1108
1112
1116
1120
1124
1128
1132
1136
1140
1144
1148
1152
1156
1160
1164
1168
1172
1176
1180
1184
1188
1192
1196
1200
1204
1208
1212
1216
1220
1224
1228
1232
1236
1240
1244
1248
1252
1256
1260
1264
1268
1272
1276
1280
1284
1288
1292
1296
1300
1304
1308
1312
1316
1320
1322
1324
1326
1328
1330
1332
1334
1336
1338
1340
1342
1344
1346
1348
1350
1352
1354
1356
1358
1360
1362
1364
1366
1368
1370
1372
1374
1376
1378
J0 6
90 1
95 1
100 1
105 1
110 1
115 1
J1 6
91 1
96 1
101 1
106 1
111 1
116 1
J2 6
92 1
97 1
102 1
107 1
112 1
117 1
J3 6
93 1
98 1
103 1
108 1
113 1
118 1
J4 6
94 1
99 1
104 1
109 1
114 1
119 1
J5 6
120 1
125 1
130 1
135 1
140 1
145 1
J6 6
121 1
126 1
131 1
136 1
141 1
146 1
J7 6
122 1
127 1
132 1
137 1
142 1
147 1
J8 6
123 1
128 1
133 1
138 1
143 1
148 1
J9 6
124 1
129 1
134 1
139 1
144 1
149 1
J10 6
150 1
155 1
160 1
165 1
170 1
175 1
J11 6
151 1
156 1
161 1
166 1
171 1
176 1
J12 6
152 1
157 1
162 1
167 1
172 1
177 1
J13 6
153 1
158 1
163 1
168 1
173 1
178 1
J14 6
154 1
159 1
164 1
169 1
174 1
179 1
J15 6
180 1
185 1
190 1
195 1
200 1
205 1
J16 6
181 1
186 1
191 1
196 1
201 1
206 1
J17 6
182 1
187 1
192 1
197 1
202 1
207 1
J18 6
183 1
188 1
193 1
198 1
203 1
208 1
J19 6
184 1
189 1
194 1
199 1
204 1
209 1
J20 6
210 1
215 1
220 1
225 1
230 1
235 1
J21 6
211 1
216 1
221 1
226 1
231 1
236 1
J22 6
212 1
217 1
222 1
227 1
232 1
237 1
J23 6
213 1
218 1
223 1
228 1
233 1
238 1
J24 6
214 1
219 1
224 1
229 1
234 1
239 1
J25 8
90 -1
120 -1
150 -1
180 -1
210 -1
240 1
245 1
250 1
J26 8
91 -1
121 -1
151 -1
181 -1
211 -1
241 1
246 1
251 1
J27 8
92 -1
122 -1
152 -1
182 -1
212 -1
242 1
247 1
252 1
J28 8
93 -1
123 -1
153 -1
183 -1
213 -1
243 1
248 1
253 1
J29 8
94 -1
124 -1
154 -1
184 -1
214 -1
244 1
249 1
254 1
J30 8
95 -1
125 -1
155 -1
185 -1
215 -1
255 1
260 1
265 1
J31 8
96 -1
126 -1
156 -1
186 -1
216 -1
256 1
261 1
266 1
J32 8
97 -1
127 -1
157 -1
187 -1
217 -1
257 1
262 1
267 1
J33 8
98 -1
128 -1
158 -1
188 -1
218 -1
258 1
263 1
268 1
J34 8
99 -1
129 -1
159 -1
189 -1
219 -1
259 1
264 1
269 1
J35 8
100 -1
130 -1
160 -1
190 -1
220 -1
270 1
275 1
280 1
J36 8
101 -1
131 -1
161 -1
191 -1
221 -1
271 1
276 1
281 1
J37 8
102 -1
132 -1
162 -1
192 -1
222 -1
272 1
277 1
282 1
J38 8
103 -1
133 -1
163 -1
193 -1
223 -1
273 1
278 1
283 1
J39 8
104 -1
134 -1
164 -1
194 -1
224 -1
274 1
279 1
284 1
J40 8
105 -1
135 -1
165 -1
195 -1
225 -1
285 1
290 1
295 1
J41 8
106 -1
136 -1
166 -1
196 -1
226 -1
286 1
291 1
296 1
J42 8
107 -1
137 -1
167 -1
197 -1
227 -1
287 1
292 1
297 1
J43 8
108 -1
138 -1
168 -1
198 -1
228 -1
288 1
293 1
298 1
J44 8
109 -1
139 -1
169 -1
199 -1
229 -1
289 1
294 1
299 1
J45 8
110 -1
140 -1
170 -1
200 -1
230 -1
300 1
305 1
310 1
J46 8
111 -1
141 -1
171 -1
201 -1
231 -1
301 1
306 1
311 1
J47 8
112 -1
142 -1
172 -1
202 -1
232 -1
302 1
307 1
312 1
J48 8
113 -1
143 -1
173 -1
203 -1
233 -1
303 1
308 1
313 1
J49 8
114 -1
144 -1
174 -1
204 -1
234 -1
304 1
309 1
314 1
J50 8
115 -1
145 -1
175 -1
205 -1
235 -1
315 1
320 1
325 1
J51 8
116 -1
146 -1
176 -1
206 -1
236 -1
316 1
321 1
326 1
J52 8
117 -1
147 -1
177 -1
207 -1
237 -1
317 1
322 1
327 1
J53 8
118 -1
148 -1
178 -1
208 -1
238 -1
318 1
323 1
328 1
J54 8
119 -1
149 -1
179 -1
209 -1
239 -1
319 1
324 1
329 1
J55 12
0 1
5 1
10 1
15 1
20 1
25 1
240 -1
255 -1
270 -1
285 -1
300 -1
315 -1
J56 12
1 1
6 1
11 1
16 1
21 1
26 1
241 -1
256 -1
271 -1
286 -1
301 -1
316 -1
J57 12
2 1
7 1
12 1
17 1
22 1
27 1
242 -1
257 -1
272 -1
287 -1
302 -1
317 -1
J58 12
3 1
8 1
13 1
18 1
23 1
28 1
243 -1
258 -1
273 -1
288 -1
303 -1
318 -1
J59 12
4 1
9 1
14 1
19 1
24 1
29 1
244 -1
259 -1
274 -1
289 -1
304 -1
319 -1
J60 12
30 1
35 1
40 1
45 1
50 1
55 1
245 -1
260 -1
275 -1
290 -1
305 -1
320 -1
J61 12
31 1
36 1
41 1
46 1
51 1
56 1
246 -1
261 -1
276 -1
291 -1
306 -1
321 -1
J62 12
32 1
37 1
42 1
47 1
52 1
57 1
247 -1
262 -1
277 -1
292 -1
307 -1
322 -1
J63 12
33 1
38 1
43 1
48 1
53 1
58 1
248 -1
263 -1
278 -1
293 -1
308 -1
323 -1
J64 12
34 1
39 1
44 1
49 1
54 1
59 1
249 -1
264 -1
279 -1
294 -1
309 -1
324 -1
J65 12
60 1
65 1
70 1
75 1
80 1
85 1
250 -1
265 -1
280 -1
295 -1
310 -1
325 -1
J66 12
61 1
66 1
71 1
76 1
81 1
86 1
251 -1
266 -1
281 -1
296 -1
311 -1
326 -1
J67 12
62 1
67 1
72 1
77 1
82 1
87 1
252 -1
267 -1
282 -1
297 -1
312 -1
327 -1
J68 12
63 1
68 1
73 1
78 1
83 1
88 1
253 -1
268 -1
283 -1
298 -1
313 -1
328 -1
J69 12
64 1
69 1
74 1
79 1
84 1
89 1
254 -1
269 -1
284 -1
299 -1
314 -1
329 -1
J70 4
0 -1
30 -1
60 -1
330 -1
J71 4
1 -1
31 -1
61 -1
331 -1
J72 4
2 -1
32 -1
62 -1
332 -1
J73 4
3 -1
33 -1
63 -1
333 -1
J74 4
4 -1
34 -1
64 -1
334 -1
J75 4
5 -1
35 -1
65 -1
335 -1
J76 4
6 -1
36 -1
66 -1
336 -1
J77 4
7 -1
37 -1
67 -1
337 -1
J78 4
8 -1
38 -1
68 -1
338 -1
J79 4
9 -1
39 -1
69 -1
339 -1
J80 4
10 -1
40 -1
70 -1
340 -1
J81 4
11 -1
41 -1
71 -1
341 -1
J82 4
12 -1
42 -1
72 -1
342 -1
J83 4
13 -1
43 -1
73 -1
343 -1
J84 4
14 -1
44 -1
74 -1
344 -1
J85 4
15 -1
45 -1
75 -1
345 -1
J86 4
16 -1
46 -1
76 -1
346 -1
J87 4
17 -1
47 -1
77 -1
347 -1
J88 4
18 -1
48 -1
78 -1
348 -1
J89 4
19 -1
49 -1
79 -1
349 -1
J90 4
20 -1
50 -1
80 -1
350 -1
J91 4
21 -1
51 -1
81 -1
351 -1
J92 4
22 -1
52 -1
82 -1
352 -1
J93 4
23 -1
53 -1
83 -1
353 -1
J94 4
24 -1
54 -1
84 -1
354 -1
J95 4
25 -1
55 -1
85 -1
355 -1
J96 4
26 -1
56 -1
86 -1
356 -1
J97 4
27 -1
57 -1
87 -1
357 -1
J98 4
28 -1
58 -1
88 -1
358 -1
J99 4
29 -1
59 -1
89 -1
359 -1
J100 6
330 1
335 1
340 1
345 1
350 1
355 1
J101 6
331 1
336 1
341 1
346 1
351 1
356 1
J102 6
332 1
337 1
342 1
347 1
352 1
357 1
J103 6
333 1
338 1
343 1
348 1
353 1
358 1
J104 6
334 1
339 1
344 1
349 1
354 1
359 1
J105 25
90 1
91 1
92 1
93 1
94 1
120 1
121 1
122 1
123 1
124 1
150 1
151 1
152 1
153 1
154 1
180 1
181 1
182 1
183 1
184 1
210 1
211 1
212 1
213 1
214 1
J106 25
95 1
96 1
97 1
98 1
99 1
125 1
126 1
127 1
128 1
129 1
155 1
156 1
157 1
158 1
159 1
185 1
186 1
187 1
188 1
189 1
215 1
216 1
217 1
218 1
219 1
J107 25
100 1
101 1
102 1
103 1
104 1
130 1
131 1
132 1
133 1
134 1
160 1
161 1
162 1
163 1
164 1
190 1
191 1
192 1
193 1
194 1
220 1
221 1
222 1
223 1
224 1
J108 25
105 1
106 1
107 1
108 1
109 1
135 1
136 1
137 1
138 1
139 1
165 1
166 1
167 1
168 1
169 1
195 1
196 1
197 1
198 1
199 1
225 1
226 1
227 1
228 1
229 1
J109 25
110 1
111 1
112 1
113 1
114 1
140 1
141 1
142 1
143 1
144 1
170 1
171 1
172 1
173 1
174 1
200 1
201 1
202 1
203 1
204 1
230 1
231 1
232 1
233 1
234 1
J110 25
115 1
116 1
117 1
118 1
119 1
145 1
146 1
147 1
148 1
149 1
175 1
176 1
177 1
178 1
179 1
205 1
206 1
207 1
208 1
209 1
235 1
236 1
237 1
238 1
239 1
J111 30
240 1
241 1
242 1
243 1
244 1
255 1
256 1
257 1
258 1
259 1
270 1
271 1
272 1
273 1
274 1
285 1
286 1
287 1
288 1
289 1
300 1
301 1
302 1
303 1
304 1
315 1
316 1
317 1
318 1
319 1
J112 30
245 1
246 1
247 1
248 1
249 1
260 1
261 1
262 1
263 1
264 1
275 1
276 1
277 1
278 1
279 1
290 1
291 1
292 1
293 1
294 1
305 1
306 1
307 1
308 1
309 1
320 1
321 1
322 1
323 1
324 1
J113 30
250 1
251 1
252 1
253 1
254 1
265 1
266 1
267 1
268 1
269 1
280 1
281 1
282 1
283 1
284 1
295 1
296 1
297 1
298 1
299 1
310 1
311 1
312 1
313 1
314 1
325 1
326 1
327 1
328 1
329 1
J114 15
0 1
1 1
2 1
3 1
4 1
30 1
31 1
32 1
33 1
34 1
60 1
61 1
62 1
63 1
64 1
J115 15
5 1
6 1
7 1
8 1
9 1
35 1
36 1
37 1
38 1
39 1
65 1
66 1
67 1
68 1
69 1
J116 15
10 1
11 1
12 1
13 1
14 1
40 1
41 1
42 1
43 1
44 1
70 1
71 1
72 1
73 1
74 1
J117 15
15 1
16 1
17 1
18 1
19 1
45 1
46 1
47 1
48 1
49 1
75 1
76 1
77 1
78 1
79 1
J118 15
20 1
21 1
22 1
23 1
24 1
50 1
51 1
52 1
53 1
54 1
80 1
81 1
82 1
83 1
84 1
J119 15
25 1
26 1
27 1
28 1
29 1
55 1
56 1
57 1
58 1
59 1
85 1
86 1
87 1
88 1
89 1
J120 30
90 1
91 1
92 1
93 1
94 1
95 1
96 1
97 1
98 1
99 1
100 1
101 1
102 1
103 1
104 1
105 1
106 1
107 1
108 1
109 1
110 1
111 1
112 1
113 1
114 1
115 1
116 1
117 1
118 1
119 1
J121 30
120 1
121 1
122 1
123 1
124 1
125 1
126 1
127 1
128 1
129 1
130 1
131 1
132 1
133 1
134 1
135 1
136 1
137 1
138 1
139 1
140 1
141 1
142 1
143 1
144 1
145 1
146 1
147 1
148 1
149 1
J122 30
150 1
151 1
152 1
153 1
154 1
155 1
156 1
157 1
158 1
159 1
160 1
161 1
162 1
163 1
164 1
165 1
166 1
167 1
168 1
169 1
170 1
171 1
172 1
173 1
174 1
175 1
176 1
177 1
178 1
179 1
J123 30
180 1
181 1
182 1
183 1
184 1
185 1
186 1
187 1
188 1
189 1
190 1
191 1
192 1
193 1
194 1
195 1
196 1
197 1
198 1
199 1
200 1
201 1
202 1
203 1
204 1
205 1
206 1
207 1
208 1
209 1
J124 30
210 1
211 1
212 1
213 1
214 1
215 1
216 1
217 1
218 1
219 1
220 1
221 1
222 1
223 1
224 1
225 1
226 1
227 1
228 1
229 1
230 1
231 1
232 1
233 1
234 1
235 1
236 1
237 1
238 1
239 1
J125 15
240 1
241 1
242 1
243 1
244 1
245 1
246 1
247 1
248 1
249 1
250 1
251 1
252 1
253 1
254 1
J126 15
255 1
256 1
257 1
258 1
259 1
260 1
261 1
262 1
263 1
264 1
265 1
266 1
267 1
268 1
269 1
J127 15
270 1
271 1
272 1
273 1
274 1
275 1
276 1
277 1
278 1
279 1
280 1
281 1
282 1
283 1
284 1
J128 15
285 1
286 1
287 1
288 1
289 1
290 1
291 1
292 1
293 1
294 1
295 1
296 1
297 1
298 1
299 1
J129 15
300 1
301 1
302 1
303 1
304 1
305 1
306 1
307 1
308 1
309 1
310 1
311 1
312 1
313 1
314 1
J130 15
315 1
316 1
317 1
318 1
319 1
320 1
321 1
322 1
323 1
324 1
325 1
326 1
327 1
328 1
329 1
J131 30
0 1
1 1
2 1
3 1
4 1
5 1
6 1
7 1
8 1
9 1
10 1
11 1
12 1
13 1
14 1
15 1
16 1
17 1
18 1
19 1
20 1
21 1
22 1
23 1
24 1
25 1
26 1
27 1
28 1
29 1
J132 30
30 1
31 1
32 1
33 1
34 1
35 1
36 1
37 1
38 1
39 1
40 1
41 1
42 1
43 1
44 1
45 1
46 1
47 1
48 1
49 1
50 1
51 1
52 1
53 1
54 1
55 1
56 1
57 1
58 1
59 1
J133 30
60 1
61 1
62 1
63 1
64 1
65 1
66 1
67 1
68 1
69 1
70 1
71 1
72 1
73 1
74 1
75 1
76 1
77 1
78 1
79 1
80 1
81 1
82 1
83 1
84 1
85 1
86 1
87 1
88 1
89 1
G0 330
0 831
1 831
2 831
3 831
4 831
5 968
6 968
7 968
8 968
9 968
10 140
11 140
12 140
13 140
14 140
15 839
16 839
17 839
18 839
19 839
20 803
21 803
22 803
23 803
24 803
25 601
26 601
27 601
28 601
29 601
30 244
31 244
32 244
33 244
34 244
35 300
36 300
37 300
38 300
39 300
40 823
41 823
42 823
43 823
44 823
45 560
46 560
47 560
48 560
49 560
50 831
51 831
52 831
53 831
54 831
55 851
56 851
57 851
58 851
59 851
60 657
61 657
62 657
63 657
64 657
65 646
66 646
67 646
68 646
69 646
70 352
71 352
72 352
73 352
74 352
75 489
76 489
77 489
78 489
79 489
80 693
81 693
82 693
83 693
84 693
85 982
86 982
87 982
88 982
89 982
90 771
91 771
92 771
93 771
94 771
95 272
96 272
97 272
98 272
99 272
100 928
101 928
102 928
103 928
104 928
105 914
106 914
107 914
108 914
109 914
110 248
111 248
112 248
113 248
114 248
115 179
116 179
117 179
118 179
119 179
120 985
121 985
122 985
123 985
124 985
125 312
126 312
127 312
128 312
129 312
130 302
131 302
132 302
133 302
134 302
135 863
136 863
137 863
138 863
139 863
140 328
141 328
142 328
143 328
144 328
145 775
146 775
147 775
148 775
149 775
150 326
151 326
152 326
153 326
154 326
155 758
156 758
157 758
158 758
159 758
160 631
161 631
162 631
163 631
164 631
165 540
166 540
167 540
168 540
169 540
170 501
171 501
172 501
173 501
174 501
175 146
176 146
177 146
178 146
179 146
180 332
181 332
182 332
183 332
184 332
185 404
186 404
187 404
188 404
189 404
190 625
191 625
192 625
193 625
194 625
195 242
196 242
197 242
198 242
199 242
200 514
201 514
202 514
203 514
204 514
205 612
206 612
207 612
208 612
209 612
210 472
211 472
212 472
213 472
214 472
215 665
216 665
217 665
218 665
219 665
220 985
221 985
222 985
223 985
224 985
225 358
226 358
227 358
228 358
229 358
230 755
231 755
232 755
233 755
234 755
235 570
236 570
237 570
238 570
239 570
240 111
241 111
242 111
243 111
244 111
245 429
246 429
247 429
248 429
249 429
250 835
251 835
252 835
253 835
254 835
255 883
256 883
257 883
258 883
259 883
260 457
261 457
262 457
263 457
264 457
265 507
266 507
267 507
268 507
269 507
270 767
271 767
272 767
273 767
274 767
275 472
276 472
277 472
278 472
279 472
280 107
281 107
282 107
283 107
284 107
285 221
286 221
287 221
288 221
289 221
290 447
291 447
292 447
293 447
294 447
295 775
296 775
297 775
298 775
299 775
300 189
301 189
302 189
303 189
304 189
305 747
306 747
307 747
308 747
309 747
310 797
311 797
312 797
313 797
314 797
315 415
316 415
317 415
318 415
319 415
320 277
321 277
322 277
323 277
324 277
325 639
326 639
327 639
328 639
329 639
