datasets/20l5i.sol
 
couenne: Optimization interrupted by user.

Options
3
4
1
0
134
0
360
360
0
0
0
0
0
0
0
0
0
0
90
70
80
130
90
0
0
0
0
0
0
0
0
0
0
6.999999999665586
87.00000000016728
156.0000000001672
27
131.99999999999997
90
90
50
27
60
80
50
12.000000044970061
50
50
0
0
0
0
0
35.00000000033442
12
21.99999995502994
53
5.999999999832769
0
0
0
0
0
0
0
0
0
0
0
0
0
0
0
0
0
0
0
0
0
0
0
0
0
44.99999999966559
78
58.000000044970065
67
52.00000000016723
53.00000000033441
12.999999999832731
21.99999995486273
46
9.999999999999961
0
0
0
0
0
0
0
0
0
0
0
0
0
0
0
0
0
0
0
0
0
0
0
0
0
0
0
46
0
4.000000000167189
60
70
24
50
25.999999999832763
0
0
0
0
0
0
0
0
0
0
60
90
79.9999999998328
100
62.000000000167184
0
0
0
0
0
0
0
1.6720491657906678e-10
0
17.99999999983281
0
0
0
0
0
0
0
0
0
0
0
0
0
0
0
0
0
0
0
0
0
0
0
0
0
0
0
0
0
0
70
70
60
50
90
32
49.00000000016727
70
77
110
38
0.9999999998327362
0
13
0
0
0
0
0
0
0
0
0
0
0
0
0
0
0
0
0
0
0
0
0
0
62.999999999832745
4.000000000000063
6
0
0
0
0
0
0
0
0
0
0
0
68.99999999983278
57.000000000167276
115.99999999999994
77
90
0
0
0
0
0
71.00000000016723
0
0
27
0
31.999999999999996
112
74.00000000000006
83
110
0
0
0
0
0
0
0
0
0
0
0
0
0
0
0
0
0
0
0
0
38
0.9999999998327364
0
13
0
0
0
0
0
0
0
0
0
0
0
60
90
79.9999999998328
100
62.000000000167184
64.99999999966558
45.000000000167276
115.99999999999993
74
90
4.000000000167197
12
0
3
0
0
0
0
0
0
0
0
46.000000000167205
0
22
0
0
0
0
0
0
0
0
0
0
0
0
0
0
0
201.0000000001672
140
84
127
115.99999999983278
0
0
0
0
0
0
0
0
3
0
0
0
7.9999999550299385
0
0
0
0
0
0
0
0
0
0
0
2.0000000000000027
66.99999999966559
47.00000000016727
38.00000004513727
54
30.000000000000032
33.00000000033442
52.99999999983273
53.999999999832795
43
68.00000000000003
objno 0 422
